
Gurobi 10.0.3 (linux64, gurobi_cl) logging started Thu Nov  2 11:34:11 2023

Set parameter Username
Set parameter TimeLimit to value 3600
Set parameter LogFile to value "RCPSP_449.log"
Set parameter Threads to value 32
Academic license - for non-commercial use only - expires 2024-10-30
Using license file /home/jrivera6/gurobi-licenses/v1003/compute-0-34/gurobi.lic

Gurobi Optimizer version 10.0.3 build v10.0.3rc0 (linux64)
Copyright (c) 2023, Gurobi Optimization, LLC

Read MPS format model from file RCPSP_449.mps
Reading time = 0.01 seconds
RCPSP_449: 5349 rows, 2080 columns, 18893 nonzeros

CPU model: Intel(R) Xeon(R) Gold 6130 CPU @ 2.10GHz, instruction set [SSE2|AVX|AVX2|AVX512]
Thread count: 32 physical cores, 32 logical processors, using up to 32 threads

Optimize a model with 5349 rows, 2080 columns and 18893 nonzeros
Model fingerprint: 0x86a2d047
Variable types: 32 continuous, 2048 integer (2048 binary)
Coefficient statistics:
  Matrix range     [1e+00, 2e+02]
  Objective range  [1e+00, 1e+00]
  Bounds range     [1e+00, 1e+00]
  RHS range        [1e+00, 2e+02]
Presolve removed 3692 rows and 1463 columns
Presolve time: 0.23s
Presolved: 1657 rows, 617 columns, 5412 nonzeros
Variable types: 31 continuous, 586 integer (586 binary)

Root relaxation: objective 5.400000e+01, 243 iterations, 0.01 seconds (0.00 work units)

    Nodes    |    Current Node    |     Objective Bounds      |     Work
 Expl Unexpl |  Obj  Depth IntInf | Incumbent    BestBd   Gap | It/Node Time

     0     0   54.00000    0   35          -   54.00000      -     -    0s
     0     0   56.00000    0   83          -   56.00000      -     -    0s
     0     0   59.66667    0   21          -   59.66667      -     -    1s
     0     0   59.66667    0   21          -   59.66667      -     -    1s
     0     0   59.66667    0   90          -   59.66667      -     -    1s
     0     0   59.66667    0   87          -   59.66667      -     -    1s
H    0     0                     116.0000000   59.66667  48.6%     -    1s
H    0     0                     113.0000000   59.66667  47.2%     -    1s
     0     0   59.66667    0   55  113.00000   59.66667  47.2%     -    1s
     0     0   59.66667    0   62  113.00000   59.66667  47.2%     -    1s
     0     0   59.71538    0   54  113.00000   59.71538  47.2%     -    2s
H    0     0                     106.0000000   59.71538  43.7%     -    2s
     0     0   60.45426    0   54  106.00000   60.45426  43.0%     -    2s
     0     0   61.33333    0   46  106.00000   61.33333  42.1%     -    2s
     0     0   61.33333    0   45  106.00000   61.33333  42.1%     -    2s
     0     0   61.33333    0   62  106.00000   61.33333  42.1%     -    2s
H    0     0                     104.0000000   61.33333  41.0%     -    2s
     0     0   61.34545    0   75  104.00000   61.34545  41.0%     -    2s
     0     0   61.46667    0   64  104.00000   61.46667  40.9%     -    2s
     0     0   61.46667    0   65  104.00000   61.46667  40.9%     -    2s
     0     0   61.47126    0   76  104.00000   61.47126  40.9%     -    2s
H    0     0                      98.0000000   61.47126  37.3%     -    2s
     0     0   61.47126    0   79   98.00000   61.47126  37.3%     -    2s
H    0     0                      97.0000000   61.47126  36.6%     -    3s
H    0     0                      96.0000000   61.47126  36.0%     -    3s
     0     0   61.92936    0   88   96.00000   61.92936  35.5%     -    3s
H    0     0                      93.0000000   62.00000  33.3%     -    3s
     0     0   62.00000    0   90   93.00000   62.00000  33.3%     -    3s
H    0     0                      91.0000000   62.05860  31.8%     -    3s
     0     0   62.05860    0  113   91.00000   62.05860  31.8%     -    3s
     0     0   62.09472    0  105   91.00000   62.09472  31.8%     -    3s
     0     0   62.09472    0  104   91.00000   62.09472  31.8%     -    3s
     0     0   62.15669    0   86   91.00000   62.15669  31.7%     -    3s
     0     0   62.16310    0   87   91.00000   62.16310  31.7%     -    3s
     0     0   62.16310    0   87   91.00000   62.16310  31.7%     -    3s
     0     0   62.18181    0   81   91.00000   62.18181  31.7%     -    3s
     0     0   62.18181    0   90   91.00000   62.18181  31.7%     -    3s
     0     0   62.37477    0   71   91.00000   62.37477  31.5%     -    3s
H    0     0                      90.0000000   62.37477  30.7%     -    4s
     0     0   62.37477    0  103   90.00000   62.37477  30.7%     -    4s
     0     0   62.39261    0   90   90.00000   62.39261  30.7%     -    4s
     0     0   62.40756    0   85   90.00000   62.40756  30.7%     -    4s
     0     0   62.41392    0   75   90.00000   62.41392  30.7%     -    4s
     0     0   62.41392    0   75   90.00000   62.41392  30.7%     -    4s
     0     0   62.45022    0   79   90.00000   62.45022  30.6%     -    4s
     0     0   62.45022    0   99   90.00000   62.45022  30.6%     -    4s
     0     0   62.53021    0   92   90.00000   62.53021  30.5%     -    4s
     0     0   62.54438    0   80   90.00000   62.54438  30.5%     -    4s
     0     0   62.54908    0   78   90.00000   62.54908  30.5%     -    4s
     0     0   62.54908    0   71   90.00000   62.54908  30.5%     -    4s
     0     0   62.56260    0   93   90.00000   62.56260  30.5%     -    4s
     0     0   62.60719    0   88   90.00000   62.60719  30.4%     -    5s
     0     0   62.62495    0   72   90.00000   62.62495  30.4%     -    5s
     0     0   62.62978    0   68   90.00000   62.62978  30.4%     -    5s
     0     0   62.62978    0   70   90.00000   62.62978  30.4%     -    5s
     0     0   62.66895    0   90   90.00000   62.66895  30.4%     -    5s
     0     0   62.84757    0   86   90.00000   62.84757  30.2%     -    5s
     0     0   62.90442    0   87   90.00000   62.90442  30.1%     -    5s
     0     0   62.90442    0   70   90.00000   62.90442  30.1%     -    5s
     0     0   63.16501    0   77   90.00000   63.16501  29.8%     -    5s
H    0     0                      89.0000000   63.16501  29.0%     -    5s
     0     0   63.21937    0   82   89.00000   63.21937  29.0%     -    5s
     0     0   63.22199    0   73   89.00000   63.22199  29.0%     -    5s
     0     0   63.22204    0   73   89.00000   63.22204  29.0%     -    5s
     0     0   63.26302    0   79   89.00000   63.26302  28.9%     -    5s
H    0     0                      88.0000000   63.26302  28.1%     -    5s
     0     0   63.26319    0   78   88.00000   63.26319  28.1%     -    5s
     0     0   63.26552    0   77   88.00000   63.26552  28.1%     -    5s
     0     0   63.28031    0   80   88.00000   63.28031  28.1%     -    5s
     0     0   63.28035    0   75   88.00000   63.28035  28.1%     -    5s
     0     0   63.28168    0   75   88.00000   63.28168  28.1%     -    6s
     0     0   63.28251    0   69   88.00000   63.28251  28.1%     -    6s
     0     0   63.29866    0   86   88.00000   63.29866  28.1%     -    6s
H    0     0                      84.0000000   63.29866  24.6%     -    6s
     0     0   63.30536    0   71   84.00000   63.30536  24.6%     -    6s
     0     0   63.30536    0   79   84.00000   63.30536  24.6%     -    6s
     0     0   63.30543    0   71   84.00000   63.30543  24.6%     -    6s
     0     0   63.30543    0   80   84.00000   63.30543  24.6%     -    6s
     0     0   63.30679    0   64   84.00000   63.30679  24.6%     -    6s
     0     0   63.30722    0   91   84.00000   63.30722  24.6%     -    6s
     0     0   63.30841    0   84   84.00000   63.30841  24.6%     -    6s
     0     0   63.30841    0   46   84.00000   63.30841  24.6%     -    6s
     0     2   63.30841    0   37   84.00000   63.30841  24.6%     -    7s
    31    55   71.97365    5   61   84.00000   64.80716  22.8%   175   10s
   127   131   72.78332    8   94   84.00000   65.00000  22.6%   113   19s
H  136   131                      84.0000000   65.00000  22.6%   111   19s
   159   159   73.17129    9   93   84.00000   65.00000  22.6%   104   20s
H  233   228                      81.0000000   65.00000  19.8%  83.3   62s
H  247   228                      81.0000000   65.00000  19.8%  81.0   62s
H  265   228                      80.0000000   65.00000  18.8%  76.6   62s
  1000   545   78.15617   32   63   80.00000   65.22587  18.5%  40.5   65s
  3031   804   79.00893    8   76   80.00000   70.42105  12.0%  29.2   70s
  6603  1154   78.00000   18   57   80.00000   77.98427  2.52%  21.0   76s
  9450  1069   79.00000   16   32   80.00000   78.00000  2.50%  17.8   80s
 12522   507   79.00000   21   13   80.00000   79.00000  1.25%  15.5   86s
 14165   317 infeasible   29        80.00000   79.00000  1.25%  14.9   90s
 15244   306   79.33043   18   44   80.00000   79.00000  1.25%  14.6  114s
 15305   160   79.00000   17   58   80.00000   79.00000  1.25%  14.6  115s

Cutting planes:
  Gomory: 13
  Cover: 49
  Implied bound: 414
  MIR: 657
  StrongCG: 4
  Inf proof: 133
  Zero half: 4
  Mod-K: 1
  RLT: 221
  Relax-and-lift: 155
  PSD: 1

Explored 16551 nodes (249215 simplex iterations) in 118.23 seconds (4.18 work units)
Thread count was 32 (of 32 available processors)

Solution count 10: 80 81 81 ... 93

Optimal solution found (tolerance 1.00e-04)
Best objective 8.000000000000e+01, best bound 8.000000000000e+01, gap 0.0000%

Wrote result file 'RCPSP_449.sol'

